g3 1 1 0	# problem unknown
 10 21 1 0 7 	# vars, constraints, objectives, ranges, eqns
 4 1 0 0 0 0	# nonlinear constrs, objs; ccons: lin, nonlin, nd, nzlb
 0 0	# network constraints: nonlinear, linear
 7 8 1 	# nonlinear vars in constraints, objectives, both
 0 0 0 1	# linear network variables; functions; arith, flags
 0 0 0 0 0 	# discrete variables: binary, integer, nonlinear (b,c,o)
 35 6 	# nonzeros in Jacobian, obj. gradient
 0 0	# max name lengths: constraints, variables
 0 0 0 0 0	# common exprs: b,c,o,c1,o1
C0
o2
n-1
o3
o0
v2
v4
v1
C1
o2
n-1
o2
o2
n0.01
v1
o54
3
o2
n13.167
v5
o16
o2
n0.6667
o5
v5
n2
n112
C2
o2
n0.038
o5
v5
n2
C3
o2
n-1
o3
o2
n98000.0
v3
o0
o2
v0
v6
o2
n1000.0
v3
C4
n0
C5
n0
C6
n0
C7
n0
C8
n0
C9
n0
C10
n0
C11
n0
C12
n0
C13
n0
C14
n0
C15
n0
C16
n0
C17
n0
C18
n0
C19
n0
C20
n0
O0 0
o2
n-1
o2
o2
n0.063
v0
v7
x10
0 3048.2897017272794
1 1745.0
2 12000.0
3 110.0
4 1973.9131654646967
5 8.007973160724754
6 3.560779555148116
7 92.77060126854636
8 89.19832477429978
9 145.3118038056391
r
4 0.0
4 0.0
4 57.425
4 0.0
2 0.0
2 0.0
2 85.0
2 90.0
2 3.0
2 0.01
2 145.0
1 5000.0
1 2000.0
1 93.0
1 95.0
1 12.0
1 4.0
1 162.0
4 0.0
4 -133.0
4 35.82
b
3
0 1e-05 2000.0
0 1e-05 16000.0
0 1e-05 120.0
3
3
3
3
3
3
k9
5
8
9
10
14
19
23
27
31
J0 4
5 1
1 0
2 0
4 0
J1 3
0 1
1 0
5 0
J2 3
8 -0.325
7 1
5 -1.098
J3 4
8 1
3 0
0 0
6 0
J4 1
0 1
J5 1
4 1
J6 1
8 1
J7 1
7 1
J8 1
5 1
J9 1
6 1
J10 1
9 1
J11 1
0 1
J12 1
4 1
J13 1
8 1
J14 1
7 1
J15 1
5 1
J16 1
6 1
J17 1
9 1
J18 3
1 1
0 -1.22
4 1
J19 2
7 -3.0
9 1
J20 2
6 1
9 0.222
G0 6
0 0
1 5.04
2 0.035
3 10
4 3.36
7 0
